c Standarized MaxSat Instance
c{
c "sha1sum": "37d8578019fb7be5eb34b5a188b0db0193504c9c",
c "nvars": 254,
c "ncls": 714,
c "total_lits": 2025,
c "nhards": 664,
c "nhard_nlits": 1975,
c "nhard_len_stats":
c    { "min": 1,
c      "max": 4,
c      "ave": 2.9744,
c      "stddev": 0.6750 },
c "nsofts": 50,
c "nsoft_nlits": 50,
c "nsoft_len_stats":
c    { "min": 1,
c      "max": 1,
c      "ave": 1.0000,
c      "stddev": 0.0000 },
c "nsoft_wts": 1,
c "soft_wt_stats":
c    { "min": 1,
c      "max": 1,
c      "ave": 1.0000,
c      "stddev": 0.0000 }
c}
c------------------------------------------------------------
c This instance encodes a supposedly trivial MaxSAT formula.
c The hard part of the formula encodes a cardinality constraint:
c     x1 + ... + x50 <= 20
c Cardinality encoding used is 'mtot'.
c The soft part prefers all the variables to be set to true:
c     x1 = 1, ..., x50 = 1
c As a result, the optimum cost for this formula is 30.
c
1 1 0
1 2 0
1 3 0
1 4 0
1 5 0
1 6 0
1 7 0
1 8 0
1 9 0
1 10 0
1 11 0
1 12 0
1 13 0
1 14 0
1 15 0
1 16 0
1 17 0
1 18 0
1 19 0
1 20 0
1 21 0
1 22 0
1 23 0
1 24 0
1 25 0
1 26 0
1 27 0
1 28 0
1 29 0
1 30 0
1 31 0
1 32 0
1 33 0
1 34 0
1 35 0
1 36 0
1 37 0
1 38 0
1 39 0
1 40 0
1 41 0
1 42 0
1 43 0
1 44 0
1 45 0
1 46 0
1 47 0
1 48 0
1 49 0
1 50 0
h -76 58 82 0
h -77 59 82 0
h -78 60 82 0
h -79 61 82 0
h -80 62 82 0
h -81 63 82 0
h -67 58 82 0
h -68 59 82 0
h -69 60 82 0
h -70 61 82 0
h -71 62 82 0
h -72 63 82 0
h -67 -76 59 82 0
h -67 -77 60 82 0
h -67 -78 61 82 0
h -67 -79 62 82 0
h -67 -80 63 82 0
h -67 -81 82 0
h -68 -76 60 82 0
h -68 -77 61 82 0
h -68 -78 62 82 0
h -68 -79 63 82 0
h -68 -80 82 0
h -68 -81 58 0
h -69 -76 61 82 0
h -69 -77 62 82 0
h -69 -78 63 82 0
h -69 -79 82 0
h -69 -80 58 0
h -69 -81 59 0
h -70 -76 62 82 0
h -70 -77 63 82 0
h -70 -78 82 0
h -70 -79 58 0
h -70 -80 59 0
h -70 -81 60 0
h -71 -76 63 82 0
h -71 -77 82 0
h -71 -78 58 0
h -71 -79 59 0
h -71 -80 60 0
h -71 -81 61 0
h -72 -76 82 0
h -72 -77 58 0
h -72 -78 59 0
h -72 -79 60 0
h -72 -80 61 0
h -72 -81 62 0
h -82 51 0
h -73 51 0
h -82 -73 52 0
h -74 52 0
h -82 -74 53 0
h -75 53 0
h -82 -75 54 0
h -64 51 0
h -82 -64 52 0
h -65 52 0
h -82 -65 53 0
h -66 53 0
h -82 -66 54 0
h -64 -73 52 0
h -82 -64 -73 53 0
h -64 -74 53 0
h -82 -64 -74 54 0
h -64 -75 54 0
h -82 -64 -75 55 0
h -65 -73 53 0
h -82 -65 -73 54 0
h -65 -74 54 0
h -82 -65 -74 55 0
h -65 -75 55 0
h -82 -65 -75 56 0
h -66 -73 54 0
h -82 -66 -73 55 0
h -66 -74 55 0
h -82 -66 -74 56 0
h -66 -75 56 0
h -82 -66 -75 57 0
h -91 76 97 0
h -92 77 97 0
h -93 78 97 0
h -94 79 97 0
h -95 80 97 0
h -96 81 97 0
h -84 76 97 0
h -85 77 97 0
h -86 78 97 0
h -87 79 97 0
h -88 80 97 0
h -89 81 97 0
h -84 -91 77 97 0
h -84 -92 78 97 0
h -84 -93 79 97 0
h -84 -94 80 97 0
h -84 -95 81 97 0
h -84 -96 97 0
h -85 -91 78 97 0
h -85 -92 79 97 0
h -85 -93 80 97 0
h -85 -94 81 97 0
h -85 -95 97 0
h -85 -96 76 0
h -86 -91 79 97 0
h -86 -92 80 97 0
h -86 -93 81 97 0
h -86 -94 97 0
h -86 -95 76 0
h -86 -96 77 0
h -87 -91 80 97 0
h -87 -92 81 97 0
h -87 -93 97 0
h -87 -94 76 0
h -87 -95 77 0
h -87 -96 78 0
h -88 -91 81 97 0
h -88 -92 97 0
h -88 -93 76 0
h -88 -94 77 0
h -88 -95 78 0
h -88 -96 79 0
h -89 -91 97 0
h -89 -92 76 0
h -89 -93 77 0
h -89 -94 78 0
h -89 -95 79 0
h -89 -96 80 0
h -97 73 0
h -90 73 0
h -97 -90 74 0
h -83 73 0
h -97 -83 74 0
h -83 -90 74 0
h -97 -83 -90 75 0
h -107 98 0
h -108 99 0
h -109 100 0
h -104 98 0
h -105 99 0
h -106 100 0
h -104 -107 99 0
h -104 -108 100 0
h -104 -109 101 0
h -105 -107 100 0
h -105 -108 101 0
h -105 -109 102 0
h -106 -107 101 0
h -106 -108 102 0
h -106 -109 103 0
h -44 107 0
h -110 107 0
h -111 108 0
h -110 -44 108 0
h -111 -44 109 0
h -43 110 0
h -42 110 0
h -42 -43 111 0
h -41 104 0
h -112 104 0
h -113 105 0
h -112 -41 105 0
h -113 -41 106 0
h -40 112 0
h -39 112 0
h -39 -40 113 0
h -123 114 0
h -124 115 0
h -125 116 0
h -120 114 0
h -121 115 0
h -122 116 0
h -120 -123 115 0
h -120 -124 116 0
h -120 -125 117 0
h -121 -123 116 0
h -121 -124 117 0
h -121 -125 118 0
h -122 -123 117 0
h -122 -124 118 0
h -122 -125 119 0
h -50 123 0
h -126 123 0
h -127 124 0
h -126 -50 124 0
h -127 -50 125 0
h -49 126 0
h -48 126 0
h -48 -49 127 0
h -47 120 0
h -128 120 0
h -129 121 0
h -128 -47 121 0
h -129 -47 122 0
h -46 128 0
h -45 128 0
h -45 -46 129 0
h -114 91 130 0
h -115 92 130 0
h -116 93 130 0
h -117 94 130 0
h -118 95 130 0
h -119 96 130 0
h -98 91 130 0
h -99 92 130 0
h -100 93 130 0
h -101 94 130 0
h -102 95 130 0
h -103 96 130 0
h -98 -114 92 130 0
h -98 -115 93 130 0
h -98 -116 94 130 0
h -98 -117 95 130 0
h -98 -118 96 130 0
h -98 -119 130 0
h -99 -114 93 130 0
h -99 -115 94 130 0
h -99 -116 95 130 0
h -99 -117 96 130 0
h -99 -118 130 0
h -99 -119 91 0
h -100 -114 94 130 0
h -100 -115 95 130 0
h -100 -116 96 130 0
h -100 -117 130 0
h -100 -118 91 0
h -100 -119 92 0
h -101 -114 95 130 0
h -101 -115 96 130 0
h -101 -116 130 0
h -101 -117 91 0
h -101 -118 92 0
h -101 -119 93 0
h -102 -114 96 130 0
h -102 -115 130 0
h -102 -116 91 0
h -102 -117 92 0
h -102 -118 93 0
h -102 -119 94 0
h -103 -114 130 0
h -103 -115 91 0
h -103 -116 92 0
h -103 -117 93 0
h -103 -118 94 0
h -103 -119 95 0
h -130 90 0
h -147 138 0
h -148 139 0
h -149 140 0
h -144 138 0
h -145 139 0
h -146 140 0
h -144 -147 139 0
h -144 -148 140 0
h -144 -149 141 0
h -145 -147 140 0
h -145 -148 141 0
h -145 -149 142 0
h -146 -147 141 0
h -146 -148 142 0
h -146 -149 143 0
h -38 147 0
h -150 147 0
h -151 148 0
h -150 -38 148 0
h -151 -38 149 0
h -37 150 0
h -36 150 0
h -36 -37 151 0
h -35 144 0
h -152 144 0
h -153 145 0
h -152 -35 145 0
h -153 -35 146 0
h -34 152 0
h -33 152 0
h -33 -34 153 0
h -138 84 154 0
h -139 85 154 0
h -140 86 154 0
h -141 87 154 0
h -142 88 154 0
h -143 89 154 0
h -132 84 154 0
h -133 85 154 0
h -134 86 154 0
h -135 87 154 0
h -136 88 154 0
h -137 89 154 0
h -132 -138 85 154 0
h -132 -139 86 154 0
h -132 -140 87 154 0
h -132 -141 88 154 0
h -132 -142 89 154 0
h -132 -143 154 0
h -133 -138 86 154 0
h -133 -139 87 154 0
h -133 -140 88 154 0
h -133 -141 89 154 0
h -133 -142 154 0
h -133 -143 84 0
h -134 -138 87 154 0
h -134 -139 88 154 0
h -134 -140 89 154 0
h -134 -141 154 0
h -134 -142 84 0
h -134 -143 85 0
h -135 -138 88 154 0
h -135 -139 89 154 0
h -135 -140 154 0
h -135 -141 84 0
h -135 -142 85 0
h -135 -143 86 0
h -136 -138 89 154 0
h -136 -139 154 0
h -136 -140 84 0
h -136 -141 85 0
h -136 -142 86 0
h -136 -143 87 0
h -137 -138 154 0
h -137 -139 84 0
h -137 -140 85 0
h -137 -141 86 0
h -137 -142 87 0
h -137 -143 88 0
h -154 83 0
h -131 83 0
h -154 -131 0
h -161 155 0
h -162 156 0
h -159 155 0
h -160 156 0
h -159 -161 156 0
h -159 -162 157 0
h -160 -161 157 0
h -160 -162 158 0
h -29 161 0
h -28 161 0
h -28 -29 162 0
h -27 159 0
h -26 159 0
h -26 -27 160 0
h -32 163 0
h -166 163 0
h -167 164 0
h -166 -32 164 0
h -167 -32 165 0
h -31 166 0
h -30 166 0
h -30 -31 167 0
h -163 132 168 0
h -164 133 168 0
h -165 134 168 0
h -155 132 168 0
h -156 133 168 0
h -157 134 168 0
h -158 135 168 0
h -155 -163 133 168 0
h -155 -164 134 168 0
h -155 -165 135 168 0
h -156 -163 134 168 0
h -156 -164 135 168 0
h -156 -165 136 168 0
h -157 -163 135 168 0
h -157 -164 136 168 0
h -157 -165 137 168 0
h -158 -163 136 168 0
h -158 -164 137 168 0
h -158 -165 168 0
h -168 131 0
h -177 67 183 0
h -178 68 183 0
h -179 69 183 0
h -180 70 183 0
h -181 71 183 0
h -182 72 183 0
h -170 67 183 0
h -171 68 183 0
h -172 69 183 0
h -173 70 183 0
h -174 71 183 0
h -175 72 183 0
h -170 -177 68 183 0
h -170 -178 69 183 0
h -170 -179 70 183 0
h -170 -180 71 183 0
h -170 -181 72 183 0
h -170 -182 183 0
h -171 -177 69 183 0
h -171 -178 70 183 0
h -171 -179 71 183 0
h -171 -180 72 183 0
h -171 -181 183 0
h -171 -182 67 0
h -172 -177 70 183 0
h -172 -178 71 183 0
h -172 -179 72 183 0
h -172 -180 183 0
h -172 -181 67 0
h -172 -182 68 0
h -173 -177 71 183 0
h -173 -178 72 183 0
h -173 -179 183 0
h -173 -180 67 0
h -173 -181 68 0
h -173 -182 69 0
h -174 -177 72 183 0
h -174 -178 183 0
h -174 -179 67 0
h -174 -180 68 0
h -174 -181 69 0
h -174 -182 70 0
h -175 -177 183 0
h -175 -178 67 0
h -175 -179 68 0
h -175 -180 69 0
h -175 -181 70 0
h -175 -182 71 0
h -183 64 0
h -176 64 0
h -183 -176 65 0
h -169 64 0
h -183 -169 65 0
h -169 -176 65 0
h -183 -169 -176 66 0
h -193 184 0
h -194 185 0
h -195 186 0
h -190 184 0
h -191 185 0
h -192 186 0
h -190 -193 185 0
h -190 -194 186 0
h -190 -195 187 0
h -191 -193 186 0
h -191 -194 187 0
h -191 -195 188 0
h -192 -193 187 0
h -192 -194 188 0
h -192 -195 189 0
h -19 193 0
h -196 193 0
h -197 194 0
h -196 -19 194 0
h -197 -19 195 0
h -18 196 0
h -17 196 0
h -17 -18 197 0
h -16 190 0
h -198 190 0
h -199 191 0
h -198 -16 191 0
h -199 -16 192 0
h -15 198 0
h -14 198 0
h -14 -15 199 0
h -209 200 0
h -210 201 0
h -211 202 0
h -206 200 0
h -207 201 0
h -208 202 0
h -206 -209 201 0
h -206 -210 202 0
h -206 -211 203 0
h -207 -209 202 0
h -207 -210 203 0
h -207 -211 204 0
h -208 -209 203 0
h -208 -210 204 0
h -208 -211 205 0
h -25 209 0
h -212 209 0
h -213 210 0
h -212 -25 210 0
h -213 -25 211 0
h -24 212 0
h -23 212 0
h -23 -24 213 0
h -22 206 0
h -214 206 0
h -215 207 0
h -214 -22 207 0
h -215 -22 208 0
h -21 214 0
h -20 214 0
h -20 -21 215 0
h -200 177 216 0
h -201 178 216 0
h -202 179 216 0
h -203 180 216 0
h -204 181 216 0
h -205 182 216 0
h -184 177 216 0
h -185 178 216 0
h -186 179 216 0
h -187 180 216 0
h -188 181 216 0
h -189 182 216 0
h -184 -200 178 216 0
h -184 -201 179 216 0
h -184 -202 180 216 0
h -184 -203 181 216 0
h -184 -204 182 216 0
h -184 -205 216 0
h -185 -200 179 216 0
h -185 -201 180 216 0
h -185 -202 181 216 0
h -185 -203 182 216 0
h -185 -204 216 0
h -185 -205 177 0
h -186 -200 180 216 0
h -186 -201 181 216 0
h -186 -202 182 216 0
h -186 -203 216 0
h -186 -204 177 0
h -186 -205 178 0
h -187 -200 181 216 0
h -187 -201 182 216 0
h -187 -202 216 0
h -187 -203 177 0
h -187 -204 178 0
h -187 -205 179 0
h -188 -200 182 216 0
h -188 -201 216 0
h -188 -202 177 0
h -188 -203 178 0
h -188 -204 179 0
h -188 -205 180 0
h -189 -200 216 0
h -189 -201 177 0
h -189 -202 178 0
h -189 -203 179 0
h -189 -204 180 0
h -189 -205 181 0
h -216 176 0
h -233 224 0
h -234 225 0
h -235 226 0
h -230 224 0
h -231 225 0
h -232 226 0
h -230 -233 225 0
h -230 -234 226 0
h -230 -235 227 0
h -231 -233 226 0
h -231 -234 227 0
h -231 -235 228 0
h -232 -233 227 0
h -232 -234 228 0
h -232 -235 229 0
h -13 233 0
h -236 233 0
h -237 234 0
h -236 -13 234 0
h -237 -13 235 0
h -12 236 0
h -11 236 0
h -11 -12 237 0
h -10 230 0
h -238 230 0
h -239 231 0
h -238 -10 231 0
h -239 -10 232 0
h -9 238 0
h -8 238 0
h -8 -9 239 0
h -224 170 240 0
h -225 171 240 0
h -226 172 240 0
h -227 173 240 0
h -228 174 240 0
h -229 175 240 0
h -218 170 240 0
h -219 171 240 0
h -220 172 240 0
h -221 173 240 0
h -222 174 240 0
h -223 175 240 0
h -218 -224 171 240 0
h -218 -225 172 240 0
h -218 -226 173 240 0
h -218 -227 174 240 0
h -218 -228 175 240 0
h -218 -229 240 0
h -219 -224 172 240 0
h -219 -225 173 240 0
h -219 -226 174 240 0
h -219 -227 175 240 0
h -219 -228 240 0
h -219 -229 170 0
h -220 -224 173 240 0
h -220 -225 174 240 0
h -220 -226 175 240 0
h -220 -227 240 0
h -220 -228 170 0
h -220 -229 171 0
h -221 -224 174 240 0
h -221 -225 175 240 0
h -221 -226 240 0
h -221 -227 170 0
h -221 -228 171 0
h -221 -229 172 0
h -222 -224 175 240 0
h -222 -225 240 0
h -222 -226 170 0
h -222 -227 171 0
h -222 -228 172 0
h -222 -229 173 0
h -223 -224 240 0
h -223 -225 170 0
h -223 -226 171 0
h -223 -227 172 0
h -223 -228 173 0
h -223 -229 174 0
h -240 169 0
h -217 169 0
h -240 -217 0
h -247 241 0
h -248 242 0
h -245 241 0
h -246 242 0
h -245 -247 242 0
h -245 -248 243 0
h -246 -247 243 0
h -246 -248 244 0
h -4 247 0
h -3 247 0
h -3 -4 248 0
h -2 245 0
h -1 245 0
h -1 -2 246 0
h -7 249 0
h -252 249 0
h -253 250 0
h -252 -7 250 0
h -253 -7 251 0
h -6 252 0
h -5 252 0
h -5 -6 253 0
h -249 218 254 0
h -250 219 254 0
h -251 220 254 0
h -241 218 254 0
h -242 219 254 0
h -243 220 254 0
h -244 221 254 0
h -241 -249 219 254 0
h -241 -250 220 254 0
h -241 -251 221 254 0
h -242 -249 220 254 0
h -242 -250 221 254 0
h -242 -251 222 254 0
h -243 -249 221 254 0
h -243 -250 222 254 0
h -243 -251 223 254 0
h -244 -249 222 254 0
h -244 -250 223 254 0
h -244 -251 254 0
h -254 217 0
h -53 0
h -54 0
h -55 0
h -56 0
h -57 0
